(set-option :produce-models true)
(set-logic QF_UF)
(declare-fun p22() Bool)
(declare-fun p24() Bool)
(declare-fun p17() Bool)
(declare-fun p15() Bool)
(declare-fun p5() Bool)
(declare-fun p13() Bool)
(declare-fun p4() Bool)
(declare-fun p23() Bool)
(declare-fun p16() Bool)
(declare-fun p6() Bool)
(declare-fun p19() Bool)
(declare-fun p20() Bool)
(declare-fun p18() Bool)
(declare-fun p8() Bool)
(declare-fun p3() Bool)
(declare-fun p0() Bool)
(declare-fun p2() Bool)
(declare-fun p10() Bool)
(declare-fun p7() Bool)
(declare-fun p14() Bool)
(declare-fun p1() Bool)
(declare-fun p11() Bool)
(declare-fun p9() Bool)
(declare-fun p21() Bool)
(declare-fun p12() Bool)
(assert
(and (or (not p22) p24 p17) (or (not p22) p15 p5) (or (not p13) p4 (not p23)) (or (not p16) (not p16) (not p6)) (or p19 (not p23) (not p19)) (or p23 p20 p18) (or p24 p8 (not p3)) (or p19 (not p6) p0) (or p6 (not p5) p5) (or (not p8) p18 (not p5)) (or p4 (not p8) (not p0)) (or (not p24) p2 p0) (or (not p0) (not p10) (not p24)) (or (not p18) p7 p8) (or p14 (not p2) (not p1)) (or p19 (not p15) (not p6)) (or p10 (not p17) p11) (or (not p24) p10 p1) (or p13 p9 p11) (or p1 (not p22) p0) (or (not p3) p5 p1) (or (not p13) (not p22) p1) (or (not p21) (not p7) (not p2)) (or p7 p8 p8) (or (not p0) p6 p6) (or p5 p14 (not p9)) (or (not p14) p12 p14) (or (not p18) p10 p11) (or p14 (not p13) (not p10)) (or p3 (not p14) p19) (or (not p8) (not p3) (not p5)) (or p18 p11 p16) (or p5 p21 p1) (or (not p7) p14 p24) (or (not p23) (not p3) p19) (or p4 (not p12) (not p16)) (or p16 (not p17) (not p11)) (or (not p1) p18 p23) (or (not p7) p4 p2) (or (not p5) p2 p8) (or p21 (not p17) (not p24)) (or (not p24) (not p8) p1) (or p21 p0 p13) (or p8 p9 (not p24)) (or (not p22) (not p22) p21) (or (not p21) (not p17) (not p11)) (or (not p3) p22 p3) (or (not p12) (not p5) p21) (or p19 p8 (not p19)) (or (not p4) p21 (not p24)) (or p21 p21 (not p22)) (or p0 p5 (not p5)) (or (not p4) (not p8) p3) (or (not p5) p4 (not p1)) (or p11 (not p9) (not p9)) (or (not p17) p6 (not p3)) (or (not p0) (not p2) p19) (or (not p4) p6 (not p10)) (or (not p1) p23 p23) (or p3 p6 p11) (or (not p15) (not p14) (not p5)) (or p24 (not p24) p1) (or (not p19) (not p6) p5) (or p23 p10 p13) (or p13 p21 p13) (or (not p9) p8 p5) (or (not p4) (not p14) p22) (or p4 (not p15) (not p7)) (or p3 p10 (not p15)) (or (not p0) (not p14) p11) (or p7 p18 (not p19)) (or p15 (not p8) p6) (or p19 p4 (not p1)) (or p15 p20 (not p18)) (or p9 (not p14) p17) (or p4 (not p5) p4) (or (not p5) (not p14) p16) (or (not p19) (not p8) (not p6)) (or p22 p1 p14) (or (not p14) (not p23) (not p6)) (or (not p4) p8 (not p20)) (or p11 p6 p5) (or (not p18) (not p18) p14) (or (not p8) p11 (not p18)) (or p17 (not p23) p16) (or (not p21) (not p12) p1) (or (not p17) (not p2) (not p8)) (or (not p13) (not p0) (not p9)) (or p24 (not p13) p5) (or (not p10) p7 p6) (or p17 p12 (not p15)) (or p24 (not p15) p9) (or (not p7) p18 (not p8)) (or (not p21) p14 (not p3)) (or (not p12) (not p20) (not p23)) (or (not p11) p24 (not p8)) (or (not p4) (not p21) (not p12)) (or (not p20) p3 p7) (or p17 (not p7) p21) (or p10 p7 p4) (or (not p1) (not p20) (not p17)) (or (not p17) (not p9) (not p10)) (or (not p6) p12 p20) (or (not p14) p15 (not p10)) (or (not p14) p11 (not p12)) (or p22 p5 (not p17)) (or p11 p4 p23))
)
(check-sat)
(get-model)
